Academic license - for non-commercial use only
Gurobi Optimizer version 9.0.3 build v9.0.3rc0 (mac64)
Optimize a model with 255286 rows, 240480 columns and 1381170 nonzeros
Model fingerprint: 0xe969738a
Variable types: 0 continuous, 240480 integer (240480 binary)
Coefficient statistics:
  Matrix range     [1e+00, 1e+00]
  Objective range  [1e+01, 1e+05]
  Bounds range     [1e+00, 1e+00]
  RHS range        [1e+00, 1e+03]
Presolve added 0 rows and 5970 columns
Presolve removed 30 rows and 0 columns
Presolve time: 3.84s
Presolved: 255256 rows, 246450 columns, 1039110 nonzeros
Variable types: 0 continuous, 246450 integer (246450 binary)
Found heuristic solution: objective 666197.00000

Concurrent LP optimizer: dual simplex and barrier
Showing barrier log only...

Root barrier log...

Ordering time: 0.07s

Barrier statistics:
 Dense cols : 240
 AA' NZ     : 8.111e+05
 Factor NZ  : 3.235e+06 (roughly 230 MBytes of memory)
 Factor Ops : 4.332e+08 (less than 1 second per iteration)
 Threads    : 3

                  Objective                Residual
Iter       Primal          Dual         Primal    Dual     Compl     Time
   0   3.30763507e+08 -4.87478488e+08  3.81e+02 3.11e+01  3.04e+04     8s
   1   2.86249973e+06 -5.17194272e+08  1.85e+01 3.45e+04  1.19e+03     8s
   2   1.47767111e+06 -7.69525305e+07  6.56e+00 8.47e+02  2.34e+02     8s
   3   1.14782187e+06 -2.69544590e+07  3.73e+00 3.44e+01  7.83e+01     9s
   4   7.25700039e+05 -6.69748377e+06  1.74e-01 1.71e+00  1.08e+01     9s
   5   6.63938819e+05 -4.13879282e+05  3.28e-02 1.68e-01  1.47e+00     9s
   6   6.39068163e+05  2.45969555e+05  2.37e-02 6.46e-02  5.31e-01     9s
   7   6.26966804e+05  3.64800270e+05  2.11e-02 3.56e-02  3.53e-01    10s
   8   6.08395556e+05  4.25604318e+05  1.73e-02 2.07e-02  2.45e-01    10s
   9   6.00515065e+05  4.53600328e+05  1.58e-02 1.29e-02  1.97e-01    10s
  10   5.86805634e+05  4.66484956e+05  1.34e-02 9.43e-03  1.61e-01    11s
  11   5.77762458e+05  4.78692112e+05  1.18e-02 8.83e-03  1.32e-01    11s
  12   5.66591101e+05  4.87776262e+05  1.01e-02 6.12e-03  1.05e-01    12s
  13   5.57779494e+05  4.92708087e+05  8.67e-03 4.29e-03  8.68e-02    12s
  14   5.50479257e+05  4.95292636e+05  7.50e-03 8.17e-03  7.36e-02    12s
  15   5.43746334e+05  4.97440985e+05  6.46e-03 5.44e-03  6.17e-02    13s
  16   5.38712207e+05  4.99006315e+05  5.70e-03 4.26e-03  5.29e-02    13s
  17   5.32492147e+05  5.00352249e+05  4.72e-03 4.01e-03  4.28e-02    13s
  18   5.26826070e+05  5.01345271e+05  3.89e-03 3.18e-03  3.39e-02    14s
  19   5.22163630e+05  5.02045721e+05  3.17e-03 2.47e-03  2.68e-02    14s
  20   5.20351710e+05  5.02626322e+05  2.86e-03 1.95e-03  2.36e-02    14s
  21   5.17922334e+05  5.03200551e+05  2.42e-03 1.63e-03  1.96e-02    15s
  22   5.14905984e+05  5.03568236e+05  1.92e-03 1.68e-03  1.51e-02    15s
  23   5.13284531e+05  5.03869115e+05  1.61e-03 1.33e-03  1.25e-02    15s
  24   5.12348154e+05  5.04058158e+05  1.44e-03 1.13e-03  1.10e-02    16s
  25   5.11491303e+05  5.04303833e+05  1.26e-03 9.58e-04  9.55e-03    16s
  26   5.11071759e+05  5.04369756e+05  1.17e-03 8.83e-04  8.90e-03    16s
  27   5.10792790e+05  5.04434948e+05  1.12e-03 8.42e-04  8.44e-03    17s
  28   5.09881891e+05  5.04524454e+05  9.36e-04 7.37e-04  7.12e-03    17s
  29   5.09342561e+05  5.04648874e+05  8.42e-04 6.35e-04  6.23e-03    17s
  30   5.08596830e+05  5.04721495e+05  6.95e-04 5.51e-04  5.14e-03    18s
  31   5.08285222e+05  5.04808709e+05  6.38e-04 5.51e-04  4.61e-03    18s
  32   5.07886663e+05  5.04868738e+05  5.53e-04 4.64e-04  4.00e-03    18s
  33   5.07657429e+05  5.04922441e+05  5.04e-04 3.81e-04  3.63e-03    19s
  34   5.07208940e+05  5.04972962e+05  4.22e-04 3.24e-04  2.97e-03    19s
  35   5.06921574e+05  5.05028303e+05  3.59e-04 2.67e-04  2.51e-03    19s
  36   5.06749401e+05  5.05048784e+05  3.28e-04 2.37e-04  2.25e-03    20s
  37   5.06444420e+05  5.05079518e+05  2.68e-04 2.11e-04  1.81e-03    20s
  38   5.06367432e+05  5.05093593e+05  2.53e-04 1.92e-04  1.69e-03    20s
  39   5.06149799e+05  5.05106334e+05  2.07e-04 1.73e-04  1.38e-03    20s
  40   5.06039678e+05  5.05121828e+05  1.84e-04 1.51e-04  1.22e-03    21s
  41   5.05960066e+05  5.05143264e+05  1.67e-04 1.23e-04  1.08e-03    21s
  42   5.05837648e+05  5.05153128e+05  1.40e-04 1.15e-04  9.07e-04    21s
  43   5.05794605e+05  5.05157794e+05  1.31e-04 1.10e-04  8.43e-04    22s
  44   5.05771133e+05  5.05161098e+05  1.26e-04 1.06e-04  8.08e-04    22s
  45   5.05684172e+05  5.05168327e+05  1.08e-04 9.61e-05  6.83e-04    22s
  46   5.05644316e+05  5.05172626e+05  9.78e-05 9.24e-05  6.25e-04    22s
  47   5.05606775e+05  5.05176628e+05  8.94e-05 8.67e-05  5.70e-04    23s
  48   5.05551384e+05  5.05192657e+05  7.71e-05 6.39e-05  4.75e-04    23s
  49   5.05509536e+05  5.05197646e+05  6.68e-05 5.50e-05  4.13e-04    23s
  50   5.05463088e+05  5.05200802e+05  5.67e-05 5.18e-05  3.47e-04    24s
  51   5.05418652e+05  5.05210473e+05  4.68e-05 3.62e-05  2.75e-04    24s
  52   5.05382590e+05  5.05213834e+05  3.87e-05 2.87e-05  2.23e-04    24s
  53   5.05368685e+05  5.05218833e+05  3.56e-05 2.30e-05  1.98e-04    25s
  54   5.05344257e+05  5.05220836e+05  3.00e-05 1.96e-05  1.63e-04    25s
  55   5.05318249e+05  5.05222700e+05  2.33e-05 1.59e-05  1.26e-04    25s
  56   5.05300477e+05  5.05224569e+05  1.88e-05 1.04e-05  1.00e-04    25s
  57   5.05290057e+05  5.05225648e+05  1.63e-05 9.06e-06  8.50e-05    26s
  58   5.05277932e+05  5.05226692e+05  1.31e-05 8.44e-06  6.76e-05    26s
  59   5.05272432e+05  5.05227590e+05  1.16e-05 7.14e-06  5.91e-05    26s
  60   5.05266413e+05  5.05228283e+05  1.00e-05 6.16e-06  5.03e-05    27s
  61   5.05261352e+05  5.05228782e+05  8.54e-06 5.85e-06  4.30e-05    27s
  62   5.05255928e+05  5.05229353e+05  6.92e-06 4.96e-06  3.51e-05    27s
  63   5.05250155e+05  5.05230188e+05  5.19e-06 3.93e-06  2.63e-05    27s
  64   5.05246760e+05  5.05231066e+05  4.22e-06 2.27e-06  2.07e-05    28s
  65   5.05245279e+05  5.05231161e+05  3.78e-06 2.15e-06  1.86e-05    28s
  66   5.05243914e+05  5.05231414e+05  3.36e-06 1.84e-06  1.65e-05    28s
  67   5.05241471e+05  5.05231924e+05  2.62e-06 1.27e-06  1.26e-05    29s
  68   5.05239234e+05  5.05232394e+05  1.93e-06 8.84e-07  9.01e-06    29s
  69   5.05237133e+05  5.05232526e+05  1.33e-06 6.69e-07  6.06e-06    29s
  70   5.05235940e+05  5.05232623e+05  9.42e-07 5.40e-07  4.37e-06    29s
  71   5.05235581e+05  5.05232733e+05  8.25e-07 3.73e-07  3.75e-06    30s
  72   5.05234973e+05  5.05232793e+05  6.28e-07 2.80e-07  2.87e-06    30s
  73   5.05234826e+05  5.05232834e+05  5.80e-07 2.24e-07  2.62e-06    30s
  74   5.05234135e+05  5.05232875e+05  3.57e-07 1.44e-07  1.66e-06    31s
  75   5.05233719e+05  5.05232944e+05  2.22e-07 6.46e-08  1.02e-06    31s
  76   5.05233475e+05  5.05232975e+05  1.45e-07 6.71e-08  6.57e-07    31s
  77   5.05233340e+05  5.05232995e+05  1.04e-07 1.01e-07  4.54e-07    31s
  78   5.05233078e+05  5.05233005e+05  1.65e-08 3.09e-08  9.57e-08    32s
  79   5.05233037e+05  5.05233020e+05  3.78e-09 5.72e-09  2.22e-08    32s
  80   5.05233037e+05  5.05233020e+05  2.51e-08 5.39e-09  2.18e-08    32s
  81   5.05233037e+05  5.05233020e+05  2.49e-08 5.44e-09  2.17e-08    32s
  82   5.05233036e+05  5.05233021e+05  2.31e-08 1.21e-07  2.02e-08    33s

Barrier solved model in 82 iterations and 32.71 seconds
Optimal objective 5.05233036e+05


Root crossover log...

   92289 DPushes remaining with DInf 1.9729722e+00                33s
     764 DPushes remaining with DInf 0.0000000e+00                35s
       0 DPushes remaining with DInf 0.0000000e+00                37s

    1785 PPushes remaining with PInf 1.8699163e-06                37s
       0 PPushes remaining with PInf 6.2772050e-05                37s

  Push phase complete: Pinf 6.2772050e-05, Dinf 1.1169524e+00     37s


Root simplex log...

Iteration    Objective       Primal Inf.    Dual Inf.      Time
   21778    5.0523302e+05   0.000000e+00   1.116952e+00     37s
   21785    5.0523302e+05   0.000000e+00   0.000000e+00     37s

Solved with barrier

Root relaxation: objective 5.052330e+05, 21785 iterations, 30.68 seconds

    Nodes    |    Current Node    |     Objective Bounds      |     Work
 Expl Unexpl |  Obj  Depth IntInf | Incumbent    BestBd   Gap | It/Node Time

     0     0 505233.024    0 31485 666197.000 505233.024  24.2%     -   39s
H    0     0                    540072.00000 505233.024  6.45%     -   42s
H    0     0                    539418.00000 505233.024  6.34%     -   46s
     0     0 505235.611    0 31484 539418.000 505235.611  6.34%     -   65s
H    0     0                    539385.00000 505235.611  6.33%     -   70s
     0     0 505235.907    0 31487 539385.000 505235.907  6.33%     -   73s
     0     0 505236.238    0 31482 539385.000 505236.238  6.33%     -   76s
     0     0 505237.489    0 31477 539385.000 505237.489  6.33%     -   93s
H    0     0                    539383.00000 505237.489  6.33%     -  106s
     0     0 505238.356    0 31483 539383.000 505238.356  6.33%     -  109s
     0     0 505238.562    0 31484 539383.000 505238.562  6.33%     -  113s
     0     0 505238.613    0 31488 539383.000 505238.613  6.33%     -  114s
     0     0 505238.614    0 31489 539383.000 505238.614  6.33%     -  131s
     0     0 505238.617    0 31491 539383.000 505238.617  6.33%     -  137s
     0     0 505238.617    0 31491 539383.000 505238.617  6.33%     -  168s
H    0     2                    539368.00000 505238.869  6.33%     -  253s
     0     2 505238.869    0 31491 539368.000 505238.869  6.33%     -  253s

Cutting planes:
  Gomory: 9

Explored 1 nodes (31718 simplex iterations) in 300.09 seconds
Thread count was 8 (of 8 available processors)

Solution count 6: 539368 539383 539385 ... 666197

Time limit reached
Best objective 5.393680000000e+05, best bound 5.052390000000e+05, gap 6.3276%

User-callback calls 26657, time in user-callback 0.20 sec
Solution written to /Users/mdeboute/Desktop/Etudes/Master/M2/S9/GOPP/Projet/multi-period-flp/solution/instSingle_I30_J1000_T8_0_result.txt
